
  17    4
  10   10   10   10

   0   0   0   0   0   5 2 3 4 6 9 
   9  10  10  10  10   3 12 8 5 
   4  10  10  10  10   2 8 5 
   5  10  10  10  10   2 10 7 
   4  10  10  10  10   3 15 13 11 
   4  10  10  10  10   2 11 10 
   6  10  10  10  10   3 16 15 13 
   5  10  10  10  10   2 16 10 
   3  10  10  10  10   2 13 10 
   1  10  10  10  10   2 15 14 
   9  10  10  10  10   2 16 14 
   7  10  10  10  10   2 15 14 
   2  10  10  10  10   1 14 
   6  10  10  10  10   1 17
   9  10  10  10  10   1 17
   7  10  10  10  10   1 17
   0   0   0   0   0   0 
